NAME: line_54_80
TYPE: TSP
COMMENT: srandom_54_80
DIMENSION: 54
EDGE_WEIGHT_TYPE: EUC_2D
NODE_COORD_SECTION
1 2245 2503
2 3266 2555
3 1363 4479
4 2422 1595
5 2591 1273
6 2918 4218
7 365 1058
8 2011 3283
9 4407 3206
10 4273 4415
11 3891 2544
12 1481 1787
13 4086 4430
14 4479 1785
15 3507 3280
16 3212 1572
17 371 1808
18 510 1133
19 4939 4803
20 664 1653
21 52 3617
22 2834 1353
23 3639 3057
24 500 3248
25 400 2003
26 417 2260
27 100 675
28 4708 653
29 2755 1994
30 1701 4692
31 1194 3094
32 3416 3825
33 2992 4166
34 2451 3087
35 4031 3336
36 2826 1989
37 4399 2054
38 2680 1945
39 4599 3394
40 3186 3993
41 3333 4397
42 4412 4245
43 3133 2553
44 1871 2386
45 4432 675
46 4140 2060
47 2290 4651
48 4970 4979
49 1706 3221
50 545 1737
51 2392 2332
52 1796 242
53 2959 3847
54 1071 621
